/* Objective function */
min: +C26 +C27 +C28 +C29 +C30;

/* Constraints */
+124 C1 +121 C2 +110 C3 +49 C4 +5 C5 -167 C26 <= 0;
+124 C6 +121 C7 +110 C8 +49 C9 +5 C10 -167 C27 <= 0;
+124 C11 +121 C12 +110 C13 +49 C14 +5 C15 -167 C28 <= 0;
+124 C16 +121 C17 +110 C18 +49 C19 +5 C20 -167 C29 <= 0;
+124 C21 +121 C22 +110 C23 +49 C24 +5 C25 -167 C30 <= 0;
+45 C1 +28 C2 +40 C3 +6 C4 +14 C5 -81 C26 <= 0;
+45 C6 +28 C7 +40 C8 +6 C9 +14 C10 -81 C27 <= 0;
+45 C11 +28 C12 +40 C13 +6 C14 +14 C15 -81 C28 <= 0;
+45 C16 +28 C17 +40 C18 +6 C19 +14 C20 -81 C29 <= 0;
+45 C21 +28 C22 +40 C23 +6 C24 +14 C25 -81 C30 <= 0;
+C1 +C6 +C11 +C16 +C21 = 1;
+C2 +C7 +C12 +C17 +C22 = 1;
+C3 +C8 +C13 +C18 +C23 = 1;
+C4 +C9 +C14 +C19 +C24 = 1;
+C5 +C10 +C15 +C20 +C25 = 1;

/* Variable bounds */
C1 <= 1;
C2 <= 1;
C3 <= 1;
C4 <= 1;
C5 <= 1;
C6 <= 1;
C7 <= 1;
C8 <= 1;
C9 <= 1;
C10 <= 1;
C11 <= 1;
C12 <= 1;
C13 <= 1;
C14 <= 1;
C15 <= 1;
C16 <= 1;
C17 <= 1;
C18 <= 1;
C19 <= 1;
C20 <= 1;
C21 <= 1;
C22 <= 1;
C23 <= 1;
C24 <= 1;
C25 <= 1;
C26 <= 1;
C27 <= 1;
C28 <= 1;
C29 <= 1;
C30 <= 1;

/* Integer definitions */
int C1,C2,C3,C4,C5,C6,C7,C8,C9,C10,C11,C12,C13,C14,C15,C16,C17,C18,C19,C20,C21,C22,C23,C24,C25,C26,C27,C28,C29,C30;
